10J3M/DAT/10J3MNTR-9.dat
10 3
26.0597 38.1489
26.6134 40.9899
24.64 28.6724
20.6099 15.8374
27.0998 47.021
28.9708 2.8115
18.7454 19.1909
20.1289 16.798
25.8315 6.2929
26.3824 46.747
65.6275