10J3M/SOL/10J3MNTR-9.sol
solution status: optimal solution found
objective value:                     69.2726613178509
x#1#2                               0.155638902018153 	(obj:0)
x#1#3                               0.844361097981847 	(obj:0)
x#2#1                                0.75466519162546 	(obj:0)
x#2#2                                0.24533480837454 	(obj:0)
x#3#3                                               1 	(obj:0)
x#4#1                                               1 	(obj:0)
x#5#2                               0.598468769273304 	(obj:0)
x#6#2                               0.818885943093761 	(obj:0)
x#6#3                               0.181114056906239 	(obj:0)
x#7#2                                               1 	(obj:0)
x#8#1                                               1 	(obj:0)
x#9#1                               0.327106622033016 	(obj:0)
x#9#3                               0.672893377966983 	(obj:0)
z                                    69.2726613178509 	(obj:1)
